(set-logic QF_S)
(declare-fun var0 () String)
(declare-fun var1 () String)
(declare-fun var2 () String)
(assert (= var0 (Concat "R*x^C" (Concat var1 ""))))
(assert (= var0 (Concat "\\NdWH" (Concat var2 ""))))
(check-sat)